c created by edge2cnf
p cnf 500 3100
-1 -2 0
-1 -3 0
-1 -4 0
-1 -5 0
-2 -3 0
-2 -4 0
-2 -5 0
-3 -4 0
-3 -5 0
-4 -5 0
1 2 3 4 5 0
-6 -7 0
-6 -8 0
-6 -9 0
-6 -10 0
-7 -8 0
-7 -9 0
-7 -10 0
-8 -9 0
-8 -10 0
-9 -10 0
6 7 8 9 10 0
-11 -12 0
-11 -13 0
-11 -14 0
-11 -15 0
-12 -13 0
-12 -14 0
-12 -15 0
-13 -14 0
-13 -15 0
-14 -15 0
11 12 13 14 15 0
-16 -17 0
-16 -18 0
-16 -19 0
-16 -20 0
-17 -18 0
-17 -19 0
-17 -20 0
-18 -19 0
-18 -20 0
-19 -20 0
16 17 18 19 20 0
-21 -22 0
-21 -23 0
-21 -24 0
-21 -25 0
-22 -23 0
-22 -24 0
-22 -25 0
-23 -24 0
-23 -25 0
-24 -25 0
21 22 23 24 25 0
-26 -27 0
-26 -28 0
-26 -29 0
-26 -30 0
-27 -28 0
-27 -29 0
-27 -30 0
-28 -29 0
-28 -30 0
-29 -30 0
26 27 28 29 30 0
-31 -32 0
-31 -33 0
-31 -34 0
-31 -35 0
-32 -33 0
-32 -34 0
-32 -35 0
-33 -34 0
-33 -35 0
-34 -35 0
31 32 33 34 35 0
-36 -37 0
-36 -38 0
-36 -39 0
-36 -40 0
-37 -38 0
-37 -39 0
-37 -40 0
-38 -39 0
-38 -40 0
-39 -40 0
36 37 38 39 40 0
-41 -42 0
-41 -43 0
-41 -44 0
-41 -45 0
-42 -43 0
-42 -44 0
-42 -45 0
-43 -44 0
-43 -45 0
-44 -45 0
41 42 43 44 45 0
-46 -47 0
-46 -48 0
-46 -49 0
-46 -50 0
-47 -48 0
-47 -49 0
-47 -50 0
-48 -49 0
-48 -50 0
-49 -50 0
46 47 48 49 50 0
-51 -52 0
-51 -53 0
-51 -54 0
-51 -55 0
-52 -53 0
-52 -54 0
-52 -55 0
-53 -54 0
-53 -55 0
-54 -55 0
51 52 53 54 55 0
-56 -57 0
-56 -58 0
-56 -59 0
-56 -60 0
-57 -58 0
-57 -59 0
-57 -60 0
-58 -59 0
-58 -60 0
-59 -60 0
56 57 58 59 60 0
-61 -62 0
-61 -63 0
-61 -64 0
-61 -65 0
-62 -63 0
-62 -64 0
-62 -65 0
-63 -64 0
-63 -65 0
-64 -65 0
61 62 63 64 65 0
-66 -67 0
-66 -68 0
-66 -69 0
-66 -70 0
-67 -68 0
-67 -69 0
-67 -70 0
-68 -69 0
-68 -70 0
-69 -70 0
66 67 68 69 70 0
-71 -72 0
-71 -73 0
-71 -74 0
-71 -75 0
-72 -73 0
-72 -74 0
-72 -75 0
-73 -74 0
-73 -75 0
-74 -75 0
71 72 73 74 75 0
-76 -77 0
-76 -78 0
-76 -79 0
-76 -80 0
-77 -78 0
-77 -79 0
-77 -80 0
-78 -79 0
-78 -80 0
-79 -80 0
76 77 78 79 80 0
-81 -82 0
-81 -83 0
-81 -84 0
-81 -85 0
-82 -83 0
-82 -84 0
-82 -85 0
-83 -84 0
-83 -85 0
-84 -85 0
81 82 83 84 85 0
-86 -87 0
-86 -88 0
-86 -89 0
-86 -90 0
-87 -88 0
-87 -89 0
-87 -90 0
-88 -89 0
-88 -90 0
-89 -90 0
86 87 88 89 90 0
-91 -92 0
-91 -93 0
-91 -94 0
-91 -95 0
-92 -93 0
-92 -94 0
-92 -95 0
-93 -94 0
-93 -95 0
-94 -95 0
91 92 93 94 95 0
-96 -97 0
-96 -98 0
-96 -99 0
-96 -100 0
-97 -98 0
-97 -99 0
-97 -100 0
-98 -99 0
-98 -100 0
-99 -100 0
96 97 98 99 100 0
-101 -102 0
-101 -103 0
-101 -104 0
-101 -105 0
-102 -103 0
-102 -104 0
-102 -105 0
-103 -104 0
-103 -105 0
-104 -105 0
101 102 103 104 105 0
-106 -107 0
-106 -108 0
-106 -109 0
-106 -110 0
-107 -108 0
-107 -109 0
-107 -110 0
-108 -109 0
-108 -110 0
-109 -110 0
106 107 108 109 110 0
-111 -112 0
-111 -113 0
-111 -114 0
-111 -115 0
-112 -113 0
-112 -114 0
-112 -115 0
-113 -114 0
-113 -115 0
-114 -115 0
111 112 113 114 115 0
-116 -117 0
-116 -118 0
-116 -119 0
-116 -120 0
-117 -118 0
-117 -119 0
-117 -120 0
-118 -119 0
-118 -120 0
-119 -120 0
116 117 118 119 120 0
-121 -122 0
-121 -123 0
-121 -124 0
-121 -125 0
-122 -123 0
-122 -124 0
-122 -125 0
-123 -124 0
-123 -125 0
-124 -125 0
121 122 123 124 125 0
-126 -127 0
-126 -128 0
-126 -129 0
-126 -130 0
-127 -128 0
-127 -129 0
-127 -130 0
-128 -129 0
-128 -130 0
-129 -130 0
126 127 128 129 130 0
-131 -132 0
-131 -133 0
-131 -134 0
-131 -135 0
-132 -133 0
-132 -134 0
-132 -135 0
-133 -134 0
-133 -135 0
-134 -135 0
131 132 133 134 135 0
-136 -137 0
-136 -138 0
-136 -139 0
-136 -140 0
-137 -138 0
-137 -139 0
-137 -140 0
-138 -139 0
-138 -140 0
-139 -140 0
136 137 138 139 140 0
-141 -142 0
-141 -143 0
-141 -144 0
-141 -145 0
-142 -143 0
-142 -144 0
-142 -145 0
-143 -144 0
-143 -145 0
-144 -145 0
141 142 143 144 145 0
-146 -147 0
-146 -148 0
-146 -149 0
-146 -150 0
-147 -148 0
-147 -149 0
-147 -150 0
-148 -149 0
-148 -150 0
-149 -150 0
146 147 148 149 150 0
-151 -152 0
-151 -153 0
-151 -154 0
-151 -155 0
-152 -153 0
-152 -154 0
-152 -155 0
-153 -154 0
-153 -155 0
-154 -155 0
151 152 153 154 155 0
-156 -157 0
-156 -158 0
-156 -159 0
-156 -160 0
-157 -158 0
-157 -159 0
-157 -160 0
-158 -159 0
-158 -160 0
-159 -160 0
156 157 158 159 160 0
-161 -162 0
-161 -163 0
-161 -164 0
-161 -165 0
-162 -163 0
-162 -164 0
-162 -165 0
-163 -164 0
-163 -165 0
-164 -165 0
161 162 163 164 165 0
-166 -167 0
-166 -168 0
-166 -169 0
-166 -170 0
-167 -168 0
-167 -169 0
-167 -170 0
-168 -169 0
-168 -170 0
-169 -170 0
166 167 168 169 170 0
-171 -172 0
-171 -173 0
-171 -174 0
-171 -175 0
-172 -173 0
-172 -174 0
-172 -175 0
-173 -174 0
-173 -175 0
-174 -175 0
171 172 173 174 175 0
-176 -177 0
-176 -178 0
-176 -179 0
-176 -180 0
-177 -178 0
-177 -179 0
-177 -180 0
-178 -179 0
-178 -180 0
-179 -180 0
176 177 178 179 180 0
-181 -182 0
-181 -183 0
-181 -184 0
-181 -185 0
-182 -183 0
-182 -184 0
-182 -185 0
-183 -184 0
-183 -185 0
-184 -185 0
181 182 183 184 185 0
-186 -187 0
-186 -188 0
-186 -189 0
-186 -190 0
-187 -188 0
-187 -189 0
-187 -190 0
-188 -189 0
-188 -190 0
-189 -190 0
186 187 188 189 190 0
-191 -192 0
-191 -193 0
-191 -194 0
-191 -195 0
-192 -193 0
-192 -194 0
-192 -195 0
-193 -194 0
-193 -195 0
-194 -195 0
191 192 193 194 195 0
-196 -197 0
-196 -198 0
-196 -199 0
-196 -200 0
-197 -198 0
-197 -199 0
-197 -200 0
-198 -199 0
-198 -200 0
-199 -200 0
196 197 198 199 200 0
-201 -202 0
-201 -203 0
-201 -204 0
-201 -205 0
-202 -203 0
-202 -204 0
-202 -205 0
-203 -204 0
-203 -205 0
-204 -205 0
201 202 203 204 205 0
-206 -207 0
-206 -208 0
-206 -209 0
-206 -210 0
-207 -208 0
-207 -209 0
-207 -210 0
-208 -209 0
-208 -210 0
-209 -210 0
206 207 208 209 210 0
-211 -212 0
-211 -213 0
-211 -214 0
-211 -215 0
-212 -213 0
-212 -214 0
-212 -215 0
-213 -214 0
-213 -215 0
-214 -215 0
211 212 213 214 215 0
-216 -217 0
-216 -218 0
-216 -219 0
-216 -220 0
-217 -218 0
-217 -219 0
-217 -220 0
-218 -219 0
-218 -220 0
-219 -220 0
216 217 218 219 220 0
-221 -222 0
-221 -223 0
-221 -224 0
-221 -225 0
-222 -223 0
-222 -224 0
-222 -225 0
-223 -224 0
-223 -225 0
-224 -225 0
221 222 223 224 225 0
-226 -227 0
-226 -228 0
-226 -229 0
-226 -230 0
-227 -228 0
-227 -229 0
-227 -230 0
-228 -229 0
-228 -230 0
-229 -230 0
226 227 228 229 230 0
-231 -232 0
-231 -233 0
-231 -234 0
-231 -235 0
-232 -233 0
-232 -234 0
-232 -235 0
-233 -234 0
-233 -235 0
-234 -235 0
231 232 233 234 235 0
-236 -237 0
-236 -238 0
-236 -239 0
-236 -240 0
-237 -238 0
-237 -239 0
-237 -240 0
-238 -239 0
-238 -240 0
-239 -240 0
236 237 238 239 240 0
-241 -242 0
-241 -243 0
-241 -244 0
-241 -245 0
-242 -243 0
-242 -244 0
-242 -245 0
-243 -244 0
-243 -245 0
-244 -245 0
241 242 243 244 245 0
-246 -247 0
-246 -248 0
-246 -249 0
-246 -250 0
-247 -248 0
-247 -249 0
-247 -250 0
-248 -249 0
-248 -250 0
-249 -250 0
246 247 248 249 250 0
-251 -252 0
-251 -253 0
-251 -254 0
-251 -255 0
-252 -253 0
-252 -254 0
-252 -255 0
-253 -254 0
-253 -255 0
-254 -255 0
251 252 253 254 255 0
-256 -257 0
-256 -258 0
-256 -259 0
-256 -260 0
-257 -258 0
-257 -259 0
-257 -260 0
-258 -259 0
-258 -260 0
-259 -260 0
256 257 258 259 260 0
-261 -262 0
-261 -263 0
-261 -264 0
-261 -265 0
-262 -263 0
-262 -264 0
-262 -265 0
-263 -264 0
-263 -265 0
-264 -265 0
261 262 263 264 265 0
-266 -267 0
-266 -268 0
-266 -269 0
-266 -270 0
-267 -268 0
-267 -269 0
-267 -270 0
-268 -269 0
-268 -270 0
-269 -270 0
266 267 268 269 270 0
-271 -272 0
-271 -273 0
-271 -274 0
-271 -275 0
-272 -273 0
-272 -274 0
-272 -275 0
-273 -274 0
-273 -275 0
-274 -275 0
271 272 273 274 275 0
-276 -277 0
-276 -278 0
-276 -279 0
-276 -280 0
-277 -278 0
-277 -279 0
-277 -280 0
-278 -279 0
-278 -280 0
-279 -280 0
276 277 278 279 280 0
-281 -282 0
-281 -283 0
-281 -284 0
-281 -285 0
-282 -283 0
-282 -284 0
-282 -285 0
-283 -284 0
-283 -285 0
-284 -285 0
281 282 283 284 285 0
-286 -287 0
-286 -288 0
-286 -289 0
-286 -290 0
-287 -288 0
-287 -289 0
-287 -290 0
-288 -289 0
-288 -290 0
-289 -290 0
286 287 288 289 290 0
-291 -292 0
-291 -293 0
-291 -294 0
-291 -295 0
-292 -293 0
-292 -294 0
-292 -295 0
-293 -294 0
-293 -295 0
-294 -295 0
291 292 293 294 295 0
-296 -297 0
-296 -298 0
-296 -299 0
-296 -300 0
-297 -298 0
-297 -299 0
-297 -300 0
-298 -299 0
-298 -300 0
-299 -300 0
296 297 298 299 300 0
-301 -302 0
-301 -303 0
-301 -304 0
-301 -305 0
-302 -303 0
-302 -304 0
-302 -305 0
-303 -304 0
-303 -305 0
-304 -305 0
301 302 303 304 305 0
-306 -307 0
-306 -308 0
-306 -309 0
-306 -310 0
-307 -308 0
-307 -309 0
-307 -310 0
-308 -309 0
-308 -310 0
-309 -310 0
306 307 308 309 310 0
-311 -312 0
-311 -313 0
-311 -314 0
-311 -315 0
-312 -313 0
-312 -314 0
-312 -315 0
-313 -314 0
-313 -315 0
-314 -315 0
311 312 313 314 315 0
-316 -317 0
-316 -318 0
-316 -319 0
-316 -320 0
-317 -318 0
-317 -319 0
-317 -320 0
-318 -319 0
-318 -320 0
-319 -320 0
316 317 318 319 320 0
-321 -322 0
-321 -323 0
-321 -324 0
-321 -325 0
-322 -323 0
-322 -324 0
-322 -325 0
-323 -324 0
-323 -325 0
-324 -325 0
321 322 323 324 325 0
-326 -327 0
-326 -328 0
-326 -329 0
-326 -330 0
-327 -328 0
-327 -329 0
-327 -330 0
-328 -329 0
-328 -330 0
-329 -330 0
326 327 328 329 330 0
-331 -332 0
-331 -333 0
-331 -334 0
-331 -335 0
-332 -333 0
-332 -334 0
-332 -335 0
-333 -334 0
-333 -335 0
-334 -335 0
331 332 333 334 335 0
-336 -337 0
-336 -338 0
-336 -339 0
-336 -340 0
-337 -338 0
-337 -339 0
-337 -340 0
-338 -339 0
-338 -340 0
-339 -340 0
336 337 338 339 340 0
-341 -342 0
-341 -343 0
-341 -344 0
-341 -345 0
-342 -343 0
-342 -344 0
-342 -345 0
-343 -344 0
-343 -345 0
-344 -345 0
341 342 343 344 345 0
-346 -347 0
-346 -348 0
-346 -349 0
-346 -350 0
-347 -348 0
-347 -349 0
-347 -350 0
-348 -349 0
-348 -350 0
-349 -350 0
346 347 348 349 350 0
-351 -352 0
-351 -353 0
-351 -354 0
-351 -355 0
-352 -353 0
-352 -354 0
-352 -355 0
-353 -354 0
-353 -355 0
-354 -355 0
351 352 353 354 355 0
-356 -357 0
-356 -358 0
-356 -359 0
-356 -360 0
-357 -358 0
-357 -359 0
-357 -360 0
-358 -359 0
-358 -360 0
-359 -360 0
356 357 358 359 360 0
-361 -362 0
-361 -363 0
-361 -364 0
-361 -365 0
-362 -363 0
-362 -364 0
-362 -365 0
-363 -364 0
-363 -365 0
-364 -365 0
361 362 363 364 365 0
-366 -367 0
-366 -368 0
-366 -369 0
-366 -370 0
-367 -368 0
-367 -369 0
-367 -370 0
-368 -369 0
-368 -370 0
-369 -370 0
366 367 368 369 370 0
-371 -372 0
-371 -373 0
-371 -374 0
-371 -375 0
-372 -373 0
-372 -374 0
-372 -375 0
-373 -374 0
-373 -375 0
-374 -375 0
371 372 373 374 375 0
-376 -377 0
-376 -378 0
-376 -379 0
-376 -380 0
-377 -378 0
-377 -379 0
-377 -380 0
-378 -379 0
-378 -380 0
-379 -380 0
376 377 378 379 380 0
-381 -382 0
-381 -383 0
-381 -384 0
-381 -385 0
-382 -383 0
-382 -384 0
-382 -385 0
-383 -384 0
-383 -385 0
-384 -385 0
381 382 383 384 385 0
-386 -387 0
-386 -388 0
-386 -389 0
-386 -390 0
-387 -388 0
-387 -389 0
-387 -390 0
-388 -389 0
-388 -390 0
-389 -390 0
386 387 388 389 390 0
-391 -392 0
-391 -393 0
-391 -394 0
-391 -395 0
-392 -393 0
-392 -394 0
-392 -395 0
-393 -394 0
-393 -395 0
-394 -395 0
391 392 393 394 395 0
-396 -397 0
-396 -398 0
-396 -399 0
-396 -400 0
-397 -398 0
-397 -399 0
-397 -400 0
-398 -399 0
-398 -400 0
-399 -400 0
396 397 398 399 400 0
-401 -402 0
-401 -403 0
-401 -404 0
-401 -405 0
-402 -403 0
-402 -404 0
-402 -405 0
-403 -404 0
-403 -405 0
-404 -405 0
401 402 403 404 405 0
-406 -407 0
-406 -408 0
-406 -409 0
-406 -410 0
-407 -408 0
-407 -409 0
-407 -410 0
-408 -409 0
-408 -410 0
-409 -410 0
406 407 408 409 410 0
-411 -412 0
-411 -413 0
-411 -414 0
-411 -415 0
-412 -413 0
-412 -414 0
-412 -415 0
-413 -414 0
-413 -415 0
-414 -415 0
411 412 413 414 415 0
-416 -417 0
-416 -418 0
-416 -419 0
-416 -420 0
-417 -418 0
-417 -419 0
-417 -420 0
-418 -419 0
-418 -420 0
-419 -420 0
416 417 418 419 420 0
-421 -422 0
-421 -423 0
-421 -424 0
-421 -425 0
-422 -423 0
-422 -424 0
-422 -425 0
-423 -424 0
-423 -425 0
-424 -425 0
421 422 423 424 425 0
-426 -427 0
-426 -428 0
-426 -429 0
-426 -430 0
-427 -428 0
-427 -429 0
-427 -430 0
-428 -429 0
-428 -430 0
-429 -430 0
426 427 428 429 430 0
-431 -432 0
-431 -433 0
-431 -434 0
-431 -435 0
-432 -433 0
-432 -434 0
-432 -435 0
-433 -434 0
-433 -435 0
-434 -435 0
431 432 433 434 435 0
-436 -437 0
-436 -438 0
-436 -439 0
-436 -440 0
-437 -438 0
-437 -439 0
-437 -440 0
-438 -439 0
-438 -440 0
-439 -440 0
436 437 438 439 440 0
-441 -442 0
-441 -443 0
-441 -444 0
-441 -445 0
-442 -443 0
-442 -444 0
-442 -445 0
-443 -444 0
-443 -445 0
-444 -445 0
441 442 443 444 445 0
-446 -447 0
-446 -448 0
-446 -449 0
-446 -450 0
-447 -448 0
-447 -449 0
-447 -450 0
-448 -449 0
-448 -450 0
-449 -450 0
446 447 448 449 450 0
-451 -452 0
-451 -453 0
-451 -454 0
-451 -455 0
-452 -453 0
-452 -454 0
-452 -455 0
-453 -454 0
-453 -455 0
-454 -455 0
451 452 453 454 455 0
-456 -457 0
-456 -458 0
-456 -459 0
-456 -460 0
-457 -458 0
-457 -459 0
-457 -460 0
-458 -459 0
-458 -460 0
-459 -460 0
456 457 458 459 460 0
-461 -462 0
-461 -463 0
-461 -464 0
-461 -465 0
-462 -463 0
-462 -464 0
-462 -465 0
-463 -464 0
-463 -465 0
-464 -465 0
461 462 463 464 465 0
-466 -467 0
-466 -468 0
-466 -469 0
-466 -470 0
-467 -468 0
-467 -469 0
-467 -470 0
-468 -469 0
-468 -470 0
-469 -470 0
466 467 468 469 470 0
-471 -472 0
-471 -473 0
-471 -474 0
-471 -475 0
-472 -473 0
-472 -474 0
-472 -475 0
-473 -474 0
-473 -475 0
-474 -475 0
471 472 473 474 475 0
-476 -477 0
-476 -478 0
-476 -479 0
-476 -480 0
-477 -478 0
-477 -479 0
-477 -480 0
-478 -479 0
-478 -480 0
-479 -480 0
476 477 478 479 480 0
-481 -482 0
-481 -483 0
-481 -484 0
-481 -485 0
-482 -483 0
-482 -484 0
-482 -485 0
-483 -484 0
-483 -485 0
-484 -485 0
481 482 483 484 485 0
-486 -487 0
-486 -488 0
-486 -489 0
-486 -490 0
-487 -488 0
-487 -489 0
-487 -490 0
-488 -489 0
-488 -490 0
-489 -490 0
486 487 488 489 490 0
-491 -492 0
-491 -493 0
-491 -494 0
-491 -495 0
-492 -493 0
-492 -494 0
-492 -495 0
-493 -494 0
-493 -495 0
-494 -495 0
491 492 493 494 495 0
-496 -497 0
-496 -498 0
-496 -499 0
-496 -500 0
-497 -498 0
-497 -499 0
-497 -500 0
-498 -499 0
-498 -500 0
-499 -500 0
496 497 498 499 500 0
-6 -26 0
-7 -27 0
-8 -28 0
-9 -29 0
-10 -30 0
-16 -26 0
-17 -27 0
-18 -28 0
-19 -29 0
-20 -30 0
-21 -26 0
-22 -27 0
-23 -28 0
-24 -29 0
-25 -30 0
-51 -61 0
-52 -62 0
-53 -63 0
-54 -64 0
-55 -65 0
-56 -61 0
-57 -62 0
-58 -63 0
-59 -64 0
-60 -65 0
-71 -91 0
-72 -92 0
-73 -93 0
-74 -94 0
-75 -95 0
-121 -131 0
-122 -132 0
-123 -133 0
-124 -134 0
-125 -135 0
-121 -136 0
-122 -137 0
-123 -138 0
-124 -139 0
-125 -140 0
-126 -131 0
-127 -132 0
-128 -133 0
-129 -134 0
-130 -135 0
-176 -196 0
-177 -197 0
-178 -198 0
-179 -199 0
-180 -200 0
-211 -221 0
-212 -222 0
-213 -223 0
-214 -224 0
-215 -225 0
-241 -256 0
-242 -257 0
-243 -258 0
-244 -259 0
-245 -260 0
-271 -281 0
-272 -282 0
-273 -283 0
-274 -284 0
-275 -285 0
-316 -321 0
-317 -322 0
-318 -323 0
-319 -324 0
-320 -325 0
-326 -331 0
-327 -332 0
-328 -333 0
-329 -334 0
-330 -335 0
-336 -356 0
-337 -357 0
-338 -358 0
-339 -359 0
-340 -360 0
-341 -346 0
-342 -347 0
-343 -348 0
-344 -349 0
-345 -350 0
-351 -371 0
-352 -372 0
-353 -373 0
-354 -374 0
-355 -375 0
-396 -416 0
-397 -417 0
-398 -418 0
-399 -419 0
-400 -420 0
-416 -431 0
-417 -432 0
-418 -433 0
-419 -434 0
-420 -435 0
-436 -456 0
-437 -457 0
-438 -458 0
-439 -459 0
-440 -460 0
-456 -466 0
-457 -467 0
-458 -468 0
-459 -469 0
-460 -470 0
-466 -476 0
-467 -477 0
-468 -478 0
-469 -479 0
-470 -480 0
-1 -496 0
-2 -497 0
-3 -498 0
-4 -499 0
-5 -500 0
-1 -31 0
-2 -32 0
-3 -33 0
-4 -34 0
-5 -35 0
-1 -181 0
-2 -182 0
-3 -183 0
-4 -184 0
-5 -185 0
-1 -196 0
-2 -197 0
-3 -198 0
-4 -199 0
-5 -200 0
-1 -206 0
-2 -207 0
-3 -208 0
-4 -209 0
-5 -210 0
-1 -216 0
-2 -217 0
-3 -218 0
-4 -219 0
-5 -220 0
-1 -241 0
-2 -242 0
-3 -243 0
-4 -244 0
-5 -245 0
-1 -261 0
-2 -262 0
-3 -263 0
-4 -264 0
-5 -265 0
-1 -281 0
-2 -282 0
-3 -283 0
-4 -284 0
-5 -285 0
-1 -301 0
-2 -302 0
-3 -303 0
-4 -304 0
-5 -305 0
-1 -341 0
-2 -342 0
-3 -343 0
-4 -344 0
-5 -345 0
-1 -416 0
-2 -417 0
-3 -418 0
-4 -419 0
-5 -420 0
-1 -426 0
-2 -427 0
-3 -428 0
-4 -429 0
-5 -430 0
-1 -456 0
-2 -457 0
-3 -458 0
-4 -459 0
-5 -460 0
-6 -51 0
-7 -52 0
-8 -53 0
-9 -54 0
-10 -55 0
-6 -101 0
-7 -102 0
-8 -103 0
-9 -104 0
-10 -105 0
-6 -116 0
-7 -117 0
-8 -118 0
-9 -119 0
-10 -120 0
-6 -211 0
-7 -212 0
-8 -213 0
-9 -214 0
-10 -215 0
-6 -216 0
-7 -217 0
-8 -218 0
-9 -219 0
-10 -220 0
-6 -236 0
-7 -237 0
-8 -238 0
-9 -239 0
-10 -240 0
-6 -246 0
-7 -247 0
-8 -248 0
-9 -249 0
-10 -250 0
-6 -316 0
-7 -317 0
-8 -318 0
-9 -319 0
-10 -320 0
-6 -341 0
-7 -342 0
-8 -343 0
-9 -344 0
-10 -345 0
-6 -456 0
-7 -457 0
-8 -458 0
-9 -459 0
-10 -460 0
-11 -331 0
-12 -332 0
-13 -333 0
-14 -334 0
-15 -335 0
-11 -361 0
-12 -362 0
-13 -363 0
-14 -364 0
-15 -365 0
-11 -481 0
-12 -482 0
-13 -483 0
-14 -484 0
-15 -485 0
-16 -41 0
-17 -42 0
-18 -43 0
-19 -44 0
-20 -45 0
-16 -176 0
-17 -177 0
-18 -178 0
-19 -179 0
-20 -180 0
-16 -291 0
-17 -292 0
-18 -293 0
-19 -294 0
-20 -295 0
-16 -296 0
-17 -297 0
-18 -298 0
-19 -299 0
-20 -300 0
-16 -331 0
-17 -332 0
-18 -333 0
-19 -334 0
-20 -335 0
-16 -436 0
-17 -437 0
-18 -438 0
-19 -439 0
-20 -440 0
-16 -446 0
-17 -447 0
-18 -448 0
-19 -449 0
-20 -450 0
-16 -476 0
-17 -477 0
-18 -478 0
-19 -479 0
-20 -480 0
-21 -126 0
-22 -127 0
-23 -128 0
-24 -129 0
-25 -130 0
-21 -221 0
-22 -222 0
-23 -223 0
-24 -224 0
-25 -225 0
-21 -241 0
-22 -242 0
-23 -243 0
-24 -244 0
-25 -245 0
-21 -346 0
-22 -347 0
-23 -348 0
-24 -349 0
-25 -350 0
-26 -86 0
-27 -87 0
-28 -88 0
-29 -89 0
-30 -90 0
-26 -106 0
-27 -107 0
-28 -108 0
-29 -109 0
-30 -110 0
-26 -296 0
-27 -297 0
-28 -298 0
-29 -299 0
-30 -300 0
-26 -371 0
-27 -372 0
-28 -373 0
-29 -374 0
-30 -375 0
-31 -146 0
-32 -147 0
-33 -148 0
-34 -149 0
-35 -150 0
-31 -156 0
-32 -157 0
-33 -158 0
-34 -159 0
-35 -160 0
-31 -196 0
-32 -197 0
-33 -198 0
-34 -199 0
-35 -200 0
-31 -331 0
-32 -332 0
-33 -333 0
-34 -334 0
-35 -335 0
-31 -366 0
-32 -367 0
-33 -368 0
-34 -369 0
-35 -370 0
-31 -436 0
-32 -437 0
-33 -438 0
-34 -439 0
-35 -440 0
-31 -451 0
-32 -452 0
-33 -453 0
-34 -454 0
-35 -455 0
-36 -206 0
-37 -207 0
-38 -208 0
-39 -209 0
-40 -210 0
-36 -306 0
-37 -307 0
-38 -308 0
-39 -309 0
-40 -310 0
-41 -86 0
-42 -87 0
-43 -88 0
-44 -89 0
-45 -90 0
-41 -111 0
-42 -112 0
-43 -113 0
-44 -114 0
-45 -115 0
-41 -116 0
-42 -117 0
-43 -118 0
-44 -119 0
-45 -120 0
-41 -131 0
-42 -132 0
-43 -133 0
-44 -134 0
-45 -135 0
-41 -146 0
-42 -147 0
-43 -148 0
-44 -149 0
-45 -150 0
-41 -201 0
-42 -202 0
-43 -203 0
-44 -204 0
-45 -205 0
-41 -296 0
-42 -297 0
-43 -298 0
-44 -299 0
-45 -300 0
-41 -356 0
-42 -357 0
-43 -358 0
-44 -359 0
-45 -360 0
-41 -416 0
-42 -417 0
-43 -418 0
-44 -419 0
-45 -420 0
-41 -446 0
-42 -447 0
-43 -448 0
-44 -449 0
-45 -450 0
-41 -461 0
-42 -462 0
-43 -463 0
-44 -464 0
-45 -465 0
-46 -111 0
-47 -112 0
-48 -113 0
-49 -114 0
-50 -115 0
-46 -166 0
-47 -167 0
-48 -168 0
-49 -169 0
-50 -170 0
-46 -186 0
-47 -187 0
-48 -188 0
-49 -189 0
-50 -190 0
-46 -216 0
-47 -217 0
-48 -218 0
-49 -219 0
-50 -220 0
-46 -246 0
-47 -247 0
-48 -248 0
-49 -249 0
-50 -250 0
-46 -366 0
-47 -367 0
-48 -368 0
-49 -369 0
-50 -370 0
-46 -381 0
-47 -382 0
-48 -383 0
-49 -384 0
-50 -385 0
-46 -391 0
-47 -392 0
-48 -393 0
-49 -394 0
-50 -395 0
-46 -451 0
-47 -452 0
-48 -453 0
-49 -454 0
-50 -455 0
-51 -366 0
-52 -367 0
-53 -368 0
-54 -369 0
-55 -370 0
-56 -141 0
-57 -142 0
-58 -143 0
-59 -144 0
-60 -145 0
-56 -226 0
-57 -227 0
-58 -228 0
-59 -229 0
-60 -230 0
-56 -286 0
-57 -287 0
-58 -288 0
-59 -289 0
-60 -290 0
-56 -321 0
-57 -322 0
-58 -323 0
-59 -324 0
-60 -325 0
-56 -356 0
-57 -357 0
-58 -358 0
-59 -359 0
-60 -360 0
-56 -376 0
-57 -377 0
-58 -378 0
-59 -379 0
-60 -380 0
-56 -446 0
-57 -447 0
-58 -448 0
-59 -449 0
-60 -450 0
-61 -86 0
-62 -87 0
-63 -88 0
-64 -89 0
-65 -90 0
-61 -111 0
-62 -112 0
-63 -113 0
-64 -114 0
-65 -115 0
-61 -181 0
-62 -182 0
-63 -183 0
-64 -184 0
-65 -185 0
-61 -391 0
-62 -392 0
-63 -393 0
-64 -394 0
-65 -395 0
-66 -156 0
-67 -157 0
-68 -158 0
-69 -159 0
-70 -160 0
-66 -181 0
-67 -182 0
-68 -183 0
-69 -184 0
-70 -185 0
-66 -201 0
-67 -202 0
-68 -203 0
-69 -204 0
-70 -205 0
-66 -266 0
-67 -267 0
-68 -268 0
-69 -269 0
-70 -270 0
-66 -286 0
-67 -287 0
-68 -288 0
-69 -289 0
-70 -290 0
-66 -306 0
-67 -307 0
-68 -308 0
-69 -309 0
-70 -310 0
-66 -461 0
-67 -462 0
-68 -463 0
-69 -464 0
-70 -465 0
-71 -211 0
-72 -212 0
-73 -213 0
-74 -214 0
-75 -215 0
-71 -291 0
-72 -292 0
-73 -293 0
-74 -294 0
-75 -295 0
-71 -361 0
-72 -362 0
-73 -363 0
-74 -364 0
-75 -365 0
-71 -421 0
-72 -422 0
-73 -423 0
-74 -424 0
-75 -425 0
-76 -126 0
-77 -127 0
-78 -128 0
-79 -129 0
-80 -130 0
-76 -146 0
-77 -147 0
-78 -148 0
-79 -149 0
-80 -150 0
-76 -156 0
-77 -157 0
-78 -158 0
-79 -159 0
-80 -160 0
-76 -161 0
-77 -162 0
-78 -163 0
-79 -164 0
-80 -165 0
-76 -191 0
-77 -192 0
-78 -193 0
-79 -194 0
-80 -195 0
-76 -226 0
-77 -227 0
-78 -228 0
-79 -229 0
-80 -230 0
-76 -271 0
-77 -272 0
-78 -273 0
-79 -274 0
-80 -275 0
-76 -361 0
-77 -362 0
-78 -363 0
-79 -364 0
-80 -365 0
-76 -386 0
-77 -387 0
-78 -388 0
-79 -389 0
-80 -390 0
-81 -196 0
-82 -197 0
-83 -198 0
-84 -199 0
-85 -200 0
-81 -211 0
-82 -212 0
-83 -213 0
-84 -214 0
-85 -215 0
-81 -416 0
-82 -417 0
-83 -418 0
-84 -419 0
-85 -420 0
-81 -436 0
-82 -437 0
-83 -438 0
-84 -439 0
-85 -440 0
-81 -441 0
-82 -442 0
-83 -443 0
-84 -444 0
-85 -445 0
-86 -161 0
-87 -162 0
-88 -163 0
-89 -164 0
-90 -165 0
-86 -196 0
-87 -197 0
-88 -198 0
-89 -199 0
-90 -200 0
-86 -236 0
-87 -237 0
-88 -238 0
-89 -239 0
-90 -240 0
-86 -321 0
-87 -322 0
-88 -323 0
-89 -324 0
-90 -325 0
-86 -441 0
-87 -442 0
-88 -443 0
-89 -444 0
-90 -445 0
-91 -211 0
-92 -212 0
-93 -213 0
-94 -214 0
-95 -215 0
-91 -261 0
-92 -262 0
-93 -263 0
-94 -264 0
-95 -265 0
-91 -421 0
-92 -422 0
-93 -423 0
-94 -424 0
-95 -425 0
-91 -486 0
-92 -487 0
-93 -488 0
-94 -489 0
-95 -490 0
-96 -146 0
-97 -147 0
-98 -148 0
-99 -149 0
-100 -150 0
-96 -216 0
-97 -217 0
-98 -218 0
-99 -219 0
-100 -220 0
-96 -251 0
-97 -252 0
-98 -253 0
-99 -254 0
-100 -255 0
-96 -256 0
-97 -257 0
-98 -258 0
-99 -259 0
-100 -260 0
-96 -306 0
-97 -307 0
-98 -308 0
-99 -309 0
-100 -310 0
-96 -316 0
-97 -317 0
-98 -318 0
-99 -319 0
-100 -320 0
-96 -341 0
-97 -342 0
-98 -343 0
-99 -344 0
-100 -345 0
-96 -346 0
-97 -347 0
-98 -348 0
-99 -349 0
-100 -350 0
-96 -371 0
-97 -372 0
-98 -373 0
-99 -374 0
-100 -375 0
-101 -126 0
-102 -127 0
-103 -128 0
-104 -129 0
-105 -130 0
-101 -141 0
-102 -142 0
-103 -143 0
-104 -144 0
-105 -145 0
-101 -191 0
-102 -192 0
-103 -193 0
-104 -194 0
-105 -195 0
-101 -241 0
-102 -242 0
-103 -243 0
-104 -244 0
-105 -245 0
-101 -346 0
-102 -347 0
-103 -348 0
-104 -349 0
-105 -350 0
-101 -366 0
-102 -367 0
-103 -368 0
-104 -369 0
-105 -370 0
-101 -371 0
-102 -372 0
-103 -373 0
-104 -374 0
-105 -375 0
-101 -416 0
-102 -417 0
-103 -418 0
-104 -419 0
-105 -420 0
-106 -241 0
-107 -242 0
-108 -243 0
-109 -244 0
-110 -245 0
-106 -351 0
-107 -352 0
-108 -353 0
-109 -354 0
-110 -355 0
-106 -456 0
-107 -457 0
-108 -458 0
-109 -459 0
-110 -460 0
-111 -176 0
-112 -177 0
-113 -178 0
-114 -179 0
-115 -180 0
-111 -186 0
-112 -187 0
-113 -188 0
-114 -189 0
-115 -190 0
-111 -261 0
-112 -262 0
-113 -263 0
-114 -264 0
-115 -265 0
-111 -296 0
-112 -297 0
-113 -298 0
-114 -299 0
-115 -300 0
-111 -496 0
-112 -497 0
-113 -498 0
-114 -499 0
-115 -500 0
-116 -146 0
-117 -147 0
-118 -148 0
-119 -149 0
-120 -150 0
-116 -196 0
-117 -197 0
-118 -198 0
-119 -199 0
-120 -200 0
-116 -206 0
-117 -207 0
-118 -208 0
-119 -209 0
-120 -210 0
-116 -271 0
-117 -272 0
-118 -273 0
-119 -274 0
-120 -275 0
-116 -346 0
-117 -347 0
-118 -348 0
-119 -349 0
-120 -350 0
-116 -351 0
-117 -352 0
-118 -353 0
-119 -354 0
-120 -355 0
-116 -356 0
-117 -357 0
-118 -358 0
-119 -359 0
-120 -360 0
-116 -416 0
-117 -417 0
-118 -418 0
-119 -419 0
-120 -420 0
-116 -431 0
-117 -432 0
-118 -433 0
-119 -434 0
-120 -435 0
-121 -201 0
-122 -202 0
-123 -203 0
-124 -204 0
-125 -205 0
-121 -206 0
-122 -207 0
-123 -208 0
-124 -209 0
-125 -210 0
-121 -216 0
-122 -217 0
-123 -218 0
-124 -219 0
-125 -220 0
-121 -221 0
-122 -222 0
-123 -223 0
-124 -224 0
-125 -225 0
-121 -256 0
-122 -257 0
-123 -258 0
-124 -259 0
-125 -260 0
-121 -281 0
-122 -282 0
-123 -283 0
-124 -284 0
-125 -285 0
-121 -316 0
-122 -317 0
-123 -318 0
-124 -319 0
-125 -320 0
-121 -331 0
-122 -332 0
-123 -333 0
-124 -334 0
-125 -335 0
-121 -346 0
-122 -347 0
-123 -348 0
-124 -349 0
-125 -350 0
-121 -401 0
-122 -402 0
-123 -403 0
-124 -404 0
-125 -405 0
-121 -431 0
-122 -432 0
-123 -433 0
-124 -434 0
-125 -435 0
-121 -441 0
-122 -442 0
-123 -443 0
-124 -444 0
-125 -445 0
-126 -186 0
-127 -187 0
-128 -188 0
-129 -189 0
-130 -190 0
-126 -241 0
-127 -242 0
-128 -243 0
-129 -244 0
-130 -245 0
-126 -256 0
-127 -257 0
-128 -258 0
-129 -259 0
-130 -260 0
-126 -286 0
-127 -287 0
-128 -288 0
-129 -289 0
-130 -290 0
-126 -476 0
-127 -477 0
-128 -478 0
-129 -479 0
-130 -480 0
-131 -166 0
-132 -167 0
-133 -168 0
-134 -169 0
-135 -170 0
-131 -236 0
-132 -237 0
-133 -238 0
-134 -239 0
-135 -240 0
-131 -246 0
-132 -247 0
-133 -248 0
-134 -249 0
-135 -250 0
-131 -371 0
-132 -372 0
-133 -373 0
-134 -374 0
-135 -375 0
-131 -431 0
-132 -432 0
-133 -433 0
-134 -434 0
-135 -435 0
-131 -436 0
-132 -437 0
-133 -438 0
-134 -439 0
-135 -440 0
-131 -496 0
-132 -497 0
-133 -498 0
-134 -499 0
-135 -500 0
-136 -186 0
-137 -187 0
-138 -188 0
-139 -189 0
-140 -190 0
-136 -236 0
-137 -237 0
-138 -238 0
-139 -239 0
-140 -240 0
-136 -356 0
-137 -357 0
-138 -358 0
-139 -359 0
-140 -360 0
-136 -371 0
-137 -372 0
-138 -373 0
-139 -374 0
-140 -375 0
-136 -381 0
-137 -382 0
-138 -383 0
-139 -384 0
-140 -385 0
-136 -431 0
-137 -432 0
-138 -433 0
-139 -434 0
-140 -435 0
-136 -441 0
-137 -442 0
-138 -443 0
-139 -444 0
-140 -445 0
-136 -461 0
-137 -462 0
-138 -463 0
-139 -464 0
-140 -465 0
-141 -256 0
-142 -257 0
-143 -258 0
-144 -259 0
-145 -260 0
-141 -421 0
-142 -422 0
-143 -423 0
-144 -424 0
-145 -425 0
-141 -486 0
-142 -487 0
-143 -488 0
-144 -489 0
-145 -490 0
-141 -496 0
-142 -497 0
-143 -498 0
-144 -499 0
-145 -500 0
-146 -236 0
-147 -237 0
-148 -238 0
-149 -239 0
-150 -240 0
-146 -326 0
-147 -327 0
-148 -328 0
-149 -329 0
-150 -330 0
-146 -371 0
-147 -372 0
-148 -373 0
-149 -374 0
-150 -375 0
-146 -466 0
-147 -467 0
-148 -468 0
-149 -469 0
-150 -470 0
-151 -306 0
-152 -307 0
-153 -308 0
-154 -309 0
-155 -310 0
-151 -326 0
-152 -327 0
-153 -328 0
-154 -329 0
-155 -330 0
-151 -371 0
-152 -372 0
-153 -373 0
-154 -374 0
-155 -375 0
-151 -451 0
-152 -452 0
-153 -453 0
-154 -454 0
-155 -455 0
-151 -481 0
-152 -482 0
-153 -483 0
-154 -484 0
-155 -485 0
-156 -206 0
-157 -207 0
-158 -208 0
-159 -209 0
-160 -210 0
-156 -311 0
-157 -312 0
-158 -313 0
-159 -314 0
-160 -315 0
-161 -196 0
-162 -197 0
-163 -198 0
-164 -199 0
-165 -200 0
-161 -201 0
-162 -202 0
-163 -203 0
-164 -204 0
-165 -205 0
-161 -226 0
-162 -227 0
-163 -228 0
-164 -229 0
-165 -230 0
-161 -231 0
-162 -232 0
-163 -233 0
-164 -234 0
-165 -235 0
-161 -386 0
-162 -387 0
-163 -388 0
-164 -389 0
-165 -390 0
-161 -466 0
-162 -467 0
-163 -468 0
-164 -469 0
-165 -470 0
-161 -471 0
-162 -472 0
-163 -473 0
-164 -474 0
-165 -475 0
-161 -486 0
-162 -487 0
-163 -488 0
-164 -489 0
-165 -490 0
-161 -496 0
-162 -497 0
-163 -498 0
-164 -499 0
-165 -500 0
-166 -221 0
-167 -222 0
-168 -223 0
-169 -224 0
-170 -225 0
-166 -246 0
-167 -247 0
-168 -248 0
-169 -249 0
-170 -250 0
-166 -461 0
-167 -462 0
-168 -463 0
-169 -464 0
-170 -465 0
-166 -466 0
-167 -467 0
-168 -468 0
-169 -469 0
-170 -470 0
-166 -486 0
-167 -487 0
-168 -488 0
-169 -489 0
-170 -490 0
-166 -496 0
-167 -497 0
-168 -498 0
-169 -499 0
-170 -500 0
-171 -296 0
-172 -297 0
-173 -298 0
-174 -299 0
-175 -300 0
-171 -311 0
-172 -312 0
-173 -313 0
-174 -314 0
-175 -315 0
-171 -336 0
-172 -337 0
-173 -338 0
-174 -339 0
-175 -340 0
-176 -246 0
-177 -247 0
-178 -248 0
-179 -249 0
-180 -250 0
-176 -416 0
-177 -417 0
-178 -418 0
-179 -419 0
-180 -420 0
-176 -486 0
-177 -487 0
-178 -488 0
-179 -489 0
-180 -490 0
-181 -206 0
-182 -207 0
-183 -208 0
-184 -209 0
-185 -210 0
-181 -221 0
-182 -222 0
-183 -223 0
-184 -224 0
-185 -225 0
-181 -281 0
-182 -282 0
-183 -283 0
-184 -284 0
-185 -285 0
-181 -451 0
-182 -452 0
-183 -453 0
-184 -454 0
-185 -455 0
-186 -256 0
-187 -257 0
-188 -258 0
-189 -259 0
-190 -260 0
-186 -426 0
-187 -427 0
-188 -428 0
-189 -429 0
-190 -430 0
-186 -436 0
-187 -437 0
-188 -438 0
-189 -439 0
-190 -440 0
-186 -471 0
-187 -472 0
-188 -473 0
-189 -474 0
-190 -475 0
-186 -491 0
-187 -492 0
-188 -493 0
-189 -494 0
-190 -495 0
-191 -311 0
-192 -312 0
-193 -313 0
-194 -314 0
-195 -315 0
-191 -321 0
-192 -322 0
-193 -323 0
-194 -324 0
-195 -325 0
-191 -331 0
-192 -332 0
-193 -333 0
-194 -334 0
-195 -335 0
-191 -361 0
-192 -362 0
-193 -363 0
-194 -364 0
-195 -365 0
-191 -406 0
-192 -407 0
-193 -408 0
-194 -409 0
-195 -410 0
-191 -446 0
-192 -447 0
-193 -448 0
-194 -449 0
-195 -450 0
-191 -466 0
-192 -467 0
-193 -468 0
-194 -469 0
-195 -470 0
-196 -226 0
-197 -227 0
-198 -228 0
-199 -229 0
-200 -230 0
-196 -266 0
-197 -267 0
-198 -268 0
-199 -269 0
-200 -270 0
-196 -341 0
-197 -342 0
-198 -343 0
-199 -344 0
-200 -345 0
-196 -376 0
-197 -377 0
-198 -378 0
-199 -379 0
-200 -380 0
-196 -396 0
-197 -397 0
-198 -398 0
-199 -399 0
-200 -400 0
-196 -406 0
-197 -407 0
-198 -408 0
-199 -409 0
-200 -410 0
-196 -481 0
-197 -482 0
-198 -483 0
-199 -484 0
-200 -485 0
-196 -491 0
-197 -492 0
-198 -493 0
-199 -494 0
-200 -495 0
-201 -316 0
-202 -317 0
-203 -318 0
-204 -319 0
-205 -320 0
-201 -321 0
-202 -322 0
-203 -323 0
-204 -324 0
-205 -325 0
-201 -341 0
-202 -342 0
-203 -343 0
-204 -344 0
-205 -345 0
-206 -251 0
-207 -252 0
-208 -253 0
-209 -254 0
-210 -255 0
-206 -261 0
-207 -262 0
-208 -263 0
-209 -264 0
-210 -265 0
-206 -351 0
-207 -352 0
-208 -353 0
-209 -354 0
-210 -355 0
-206 -401 0
-207 -402 0
-208 -403 0
-209 -404 0
-210 -405 0
-206 -406 0
-207 -407 0
-208 -408 0
-209 -409 0
-210 -410 0
-211 -246 0
-212 -247 0
-213 -248 0
-214 -249 0
-215 -250 0
-211 -496 0
-212 -497 0
-213 -498 0
-214 -499 0
-215 -500 0
-216 -246 0
-217 -247 0
-218 -248 0
-219 -249 0
-220 -250 0
-216 -301 0
-217 -302 0
-218 -303 0
-219 -304 0
-220 -305 0
-216 -341 0
-217 -342 0
-218 -343 0
-219 -344 0
-220 -345 0
-216 -356 0
-217 -357 0
-218 -358 0
-219 -359 0
-220 -360 0
-216 -496 0
-217 -497 0
-218 -498 0
-219 -499 0
-220 -500 0
-221 -256 0
-222 -257 0
-223 -258 0
-224 -259 0
-225 -260 0
-221 -346 0
-222 -347 0
-223 -348 0
-224 -349 0
-225 -350 0
-221 -366 0
-222 -367 0
-223 -368 0
-224 -369 0
-225 -370 0
-221 -406 0
-222 -407 0
-223 -408 0
-224 -409 0
-225 -410 0
-221 -416 0
-222 -417 0
-223 -418 0
-224 -419 0
-225 -420 0
-221 -466 0
-222 -467 0
-223 -468 0
-224 -469 0
-225 -470 0
-226 -296 0
-227 -297 0
-228 -298 0
-229 -299 0
-230 -300 0
-226 -341 0
-227 -342 0
-228 -343 0
-229 -344 0
-230 -345 0
-226 -396 0
-227 -397 0
-228 -398 0
-229 -399 0
-230 -400 0
-226 -421 0
-227 -422 0
-228 -423 0
-229 -424 0
-230 -425 0
-226 -461 0
-227 -462 0
-228 -463 0
-229 -464 0
-230 -465 0
-226 -471 0
-227 -472 0
-228 -473 0
-229 -474 0
-230 -475 0
-226 -481 0
-227 -482 0
-228 -483 0
-229 -484 0
-230 -485 0
-231 -281 0
-232 -282 0
-233 -283 0
-234 -284 0
-235 -285 0
-231 -306 0
-232 -307 0
-233 -308 0
-234 -309 0
-235 -310 0
-231 -356 0
-232 -357 0
-233 -358 0
-234 -359 0
-235 -360 0
-231 -406 0
-232 -407 0
-233 -408 0
-234 -409 0
-235 -410 0
-231 -416 0
-232 -417 0
-233 -418 0
-234 -419 0
-235 -420 0
-231 -421 0
-232 -422 0
-233 -423 0
-234 -424 0
-235 -425 0
-231 -456 0
-232 -457 0
-233 -458 0
-234 -459 0
-235 -460 0
-231 -496 0
-232 -497 0
-233 -498 0
-234 -499 0
-235 -500 0
-236 -391 0
-237 -392 0
-238 -393 0
-239 -394 0
-240 -395 0
-241 -281 0
-242 -282 0
-243 -283 0
-244 -284 0
-245 -285 0
-241 -336 0
-242 -337 0
-243 -338 0
-244 -339 0
-245 -340 0
-241 -346 0
-242 -347 0
-243 -348 0
-244 -349 0
-245 -350 0
-241 -366 0
-242 -367 0
-243 -368 0
-244 -369 0
-245 -370 0
-241 -451 0
-242 -452 0
-243 -453 0
-244 -454 0
-245 -455 0
-241 -466 0
-242 -467 0
-243 -468 0
-244 -469 0
-245 -470 0
-246 -361 0
-247 -362 0
-248 -363 0
-249 -364 0
-250 -365 0
-246 -391 0
-247 -392 0
-248 -393 0
-249 -394 0
-250 -395 0
-246 -486 0
-247 -487 0
-248 -488 0
-249 -489 0
-250 -490 0
-251 -316 0
-252 -317 0
-253 -318 0
-254 -319 0
-255 -320 0
-251 -321 0
-252 -322 0
-253 -323 0
-254 -324 0
-255 -325 0
-251 -331 0
-252 -332 0
-253 -333 0
-254 -334 0
-255 -335 0
-251 -421 0
-252 -422 0
-253 -423 0
-254 -424 0
-255 -425 0
-256 -321 0
-257 -322 0
-258 -323 0
-259 -324 0
-260 -325 0
-256 -346 0
-257 -347 0
-258 -348 0
-259 -349 0
-260 -350 0
-256 -351 0
-257 -352 0
-258 -353 0
-259 -354 0
-260 -355 0
-256 -431 0
-257 -432 0
-258 -433 0
-259 -434 0
-260 -435 0
-261 -286 0
-262 -287 0
-263 -288 0
-264 -289 0
-265 -290 0
-261 -311 0
-262 -312 0
-263 -313 0
-264 -314 0
-265 -315 0
-261 -476 0
-262 -477 0
-263 -478 0
-264 -479 0
-265 -480 0
-266 -356 0
-267 -357 0
-268 -358 0
-269 -359 0
-270 -360 0
-271 -326 0
-272 -327 0
-273 -328 0
-274 -329 0
-275 -330 0
-271 -366 0
-272 -367 0
-273 -368 0
-274 -369 0
-275 -370 0
-271 -396 0
-272 -397 0
-273 -398 0
-274 -399 0
-275 -400 0
-271 -436 0
-272 -437 0
-273 -438 0
-274 -439 0
-275 -440 0
-276 -311 0
-277 -312 0
-278 -313 0
-279 -314 0
-280 -315 0
-276 -456 0
-277 -457 0
-278 -458 0
-279 -459 0
-280 -460 0
-281 -331 0
-282 -332 0
-283 -333 0
-284 -334 0
-285 -335 0
-281 -341 0
-282 -342 0
-283 -343 0
-284 -344 0
-285 -345 0
-281 -356 0
-282 -357 0
-283 -358 0
-284 -359 0
-285 -360 0
-281 -421 0
-282 -422 0
-283 -423 0
-284 -424 0
-285 -425 0
-281 -446 0
-282 -447 0
-283 -448 0
-284 -449 0
-285 -450 0
-281 -486 0
-282 -487 0
-283 -488 0
-284 -489 0
-285 -490 0
-286 -441 0
-287 -442 0
-288 -443 0
-289 -444 0
-290 -445 0
-291 -336 0
-292 -337 0
-293 -338 0
-294 -339 0
-295 -340 0
-291 -431 0
-292 -432 0
-293 -433 0
-294 -434 0
-295 -435 0
-291 -436 0
-292 -437 0
-293 -438 0
-294 -439 0
-295 -440 0
-291 -466 0
-292 -467 0
-293 -468 0
-294 -469 0
-295 -470 0
-291 -481 0
-292 -482 0
-293 -483 0
-294 -484 0
-295 -485 0
-291 -491 0
-292 -492 0
-293 -493 0
-294 -494 0
-295 -495 0
-296 -386 0
-297 -387 0
-298 -388 0
-299 -389 0
-300 -390 0
-296 -471 0
-297 -472 0
-298 -473 0
-299 -474 0
-300 -475 0
-301 -326 0
-302 -327 0
-303 -328 0
-304 -329 0
-305 -330 0
-301 -436 0
-302 -437 0
-303 -438 0
-304 -439 0
-305 -440 0
-301 -471 0
-302 -472 0
-303 -473 0
-304 -474 0
-305 -475 0
-306 -376 0
-307 -377 0
-308 -378 0
-309 -379 0
-310 -380 0
-311 -351 0
-312 -352 0
-313 -353 0
-314 -354 0
-315 -355 0
-311 -396 0
-312 -397 0
-313 -398 0
-314 -399 0
-315 -400 0
-311 -436 0
-312 -437 0
-313 -438 0
-314 -439 0
-315 -440 0
-311 -461 0
-312 -462 0
-313 -463 0
-314 -464 0
-315 -465 0
-311 -471 0
-312 -472 0
-313 -473 0
-314 -474 0
-315 -475 0
-311 -486 0
-312 -487 0
-313 -488 0
-314 -489 0
-315 -490 0
-316 -381 0
-317 -382 0
-318 -383 0
-319 -384 0
-320 -385 0
-321 -401 0
-322 -402 0
-323 -403 0
-324 -404 0
-325 -405 0
-326 -376 0
-327 -377 0
-328 -378 0
-329 -379 0
-330 -380 0
-326 -476 0
-327 -477 0
-328 -478 0
-329 -479 0
-330 -480 0
-331 -396 0
-332 -397 0
-333 -398 0
-334 -399 0
-335 -400 0
-331 -421 0
-332 -422 0
-333 -423 0
-334 -424 0
-335 -425 0
-331 -436 0
-332 -437 0
-333 -438 0
-334 -439 0
-335 -440 0
-331 -461 0
-332 -462 0
-333 -463 0
-334 -464 0
-335 -465 0
-336 -471 0
-337 -472 0
-338 -473 0
-339 -474 0
-340 -475 0
-336 -481 0
-337 -482 0
-338 -483 0
-339 -484 0
-340 -485 0
-341 -416 0
-342 -417 0
-343 -418 0
-344 -419 0
-345 -420 0
-341 -441 0
-342 -442 0
-343 -443 0
-344 -444 0
-345 -445 0
-346 -416 0
-347 -417 0
-348 -418 0
-349 -419 0
-350 -420 0
-346 -431 0
-347 -432 0
-348 -433 0
-349 -434 0
-350 -435 0
-351 -376 0
-352 -377 0
-353 -378 0
-354 -379 0
-355 -380 0
-351 -391 0
-352 -392 0
-353 -393 0
-354 -394 0
-355 -395 0
-356 -391 0
-357 -392 0
-358 -393 0
-359 -394 0
-360 -395 0
-361 -426 0
-362 -427 0
-363 -428 0
-364 -429 0
-365 -430 0
-361 -496 0
-362 -497 0
-363 -498 0
-364 -499 0
-365 -500 0
-366 -421 0
-367 -422 0
-368 -423 0
-369 -424 0
-370 -425 0
-366 -436 0
-367 -437 0
-368 -438 0
-369 -439 0
-370 -440 0
-366 -451 0
-367 -452 0
-368 -453 0
-369 -454 0
-370 -455 0
-371 -426 0
-372 -427 0
-373 -428 0
-374 -429 0
-375 -430 0
-371 -486 0
-372 -487 0
-373 -488 0
-374 -489 0
-375 -490 0
-376 -406 0
-377 -407 0
-378 -408 0
-379 -409 0
-380 -410 0
-376 -436 0
-377 -437 0
-378 -438 0
-379 -439 0
-380 -440 0
-376 -446 0
-377 -447 0
-378 -448 0
-379 -449 0
-380 -450 0
-381 -426 0
-382 -427 0
-383 -428 0
-384 -429 0
-385 -430 0
-381 -441 0
-382 -442 0
-383 -443 0
-384 -444 0
-385 -445 0
-381 -471 0
-382 -472 0
-383 -473 0
-384 -474 0
-385 -475 0
-381 -476 0
-382 -477 0
-383 -478 0
-384 -479 0
-385 -480 0
-386 -411 0
-387 -412 0
-388 -413 0
-389 -414 0
-390 -415 0
-386 -436 0
-387 -437 0
-388 -438 0
-389 -439 0
-390 -440 0
-386 -476 0
-387 -477 0
-388 -478 0
-389 -479 0
-390 -480 0
-386 -481 0
-387 -482 0
-388 -483 0
-389 -484 0
-390 -485 0
-391 -451 0
-392 -452 0
-393 -453 0
-394 -454 0
-395 -455 0
-396 -451 0
-397 -452 0
-398 -453 0
-399 -454 0
-400 -455 0
-396 -456 0
-397 -457 0
-398 -458 0
-399 -459 0
-400 -460 0
-396 -481 0
-397 -482 0
-398 -483 0
-399 -484 0
-400 -485 0
-396 -491 0
-397 -492 0
-398 -493 0
-399 -494 0
-400 -495 0
-406 -446 0
-407 -447 0
-408 -448 0
-409 -449 0
-410 -450 0
-406 -471 0
-407 -472 0
-408 -473 0
-409 -474 0
-410 -475 0
-406 -486 0
-407 -487 0
-408 -488 0
-409 -489 0
-410 -490 0
-451 -481 0
-452 -482 0
-453 -483 0
-454 -484 0
-455 -485 0
